(declare-fun temp47698_1 () (_ BitVec 64))
(declare-fun temp47698_2 () (_ BitVec 64))
(declare-fun var77740 () (_ BitVec 64))
(declare-fun k!0 () Bool)
(declare-fun ARGNAME_input_1_NAMEEND_DIM () (_ BitVec 64))
(declare-fun ARGNAME_data_format_NAMEEND_STRFMT () (_ BitVec 64))
(declare-fun temp47698_3 () (_ BitVec 64))
(declare-fun ARGNAME_input_2_NAMEEND_DIM () (_ BitVec 64))
(declare-fun var77770 () (_ BitVec 64))
(declare-fun temp47698_4 () (_ BitVec 64))
(declare-fun temp47698_5 () (_ BitVec 64))
(declare-fun ARGNAME_input_1_NAMEEND_DIMSIZE
             ()
             (Array (_ BitVec 64) (_ BitVec 64)))
(declare-fun temp47698_6 () (_ BitVec 64))
(declare-fun temp47698_7 () (_ BitVec 64))
(declare-fun temp47698_8 () (_ BitVec 64))
(declare-fun temp47698_9 () (_ BitVec 64))
(declare-fun temp47698_10 () (_ BitVec 64))
(declare-fun temp47698_11 () (_ BitVec 64))
(declare-fun temp47698_12 () (_ BitVec 64))
(declare-fun temp47698_13 () (_ BitVec 64))
(declare-fun temp47698_14 () (_ BitVec 64))
(declare-fun temp47698_15 () (_ BitVec 64))
(declare-fun temp47698_16 () (_ BitVec 64))
(declare-fun temp47698_17 () (_ BitVec 64))
(declare-fun temp47698_18 () (_ BitVec 64))
(declare-fun var77799 () (_ BitVec 64))
(declare-fun temp47698_19 () (_ BitVec 64))
(declare-fun ARGNAME_input_2_NAMEEND_DIMSIZE
             ()
             (Array (_ BitVec 64) (_ BitVec 64)))
(declare-fun temp47698_20 () (_ BitVec 64))
(declare-fun temp47698_21 () (_ BitVec 64))
(declare-fun temp47698_22 () (_ BitVec 64))
(declare-fun temp47698_23 () (_ BitVec 64))
(declare-fun temp47698_24 () (_ BitVec 64))
(declare-fun temp47698_25 () (_ BitVec 64))
(declare-fun temp47698_26 () (_ BitVec 64))
(declare-fun temp47698_27 () (_ BitVec 64))
(declare-fun temp47698_28 () (_ BitVec 64))
(declare-fun temp47698_29 () (_ BitVec 64))
(declare-fun temp47698_30 () (_ BitVec 64))
(declare-fun temp47698_31 () (_ BitVec 64))
(declare-fun temp47698_32 () (_ BitVec 64))
(declare-fun var77832 () (_ BitVec 64))
(declare-fun temp47698_33 () (_ BitVec 64))
(declare-fun temp47698_34 () (_ BitVec 64))
(declare-fun var77833 () (_ BitVec 64))
(declare-fun var77834 () (_ BitVec 64))
(declare-fun temp47698_35 () (_ BitVec 64))
(declare-fun temp47698_36 () (_ BitVec 64))
(declare-fun var275510 () (_ BitVec 64))
(declare-fun temp47698_37 () (_ BitVec 64))
(declare-fun var275528 () (_ BitVec 64))
(declare-fun temp47698_38 () (_ BitVec 64))
(declare-fun temp47698_40 () (_ BitVec 64))
(declare-fun temp47698_39 () (_ BitVec 64))
(declare-fun temp47698_42 () (_ BitVec 64))
(declare-fun temp47698_41 () (_ BitVec 64))
(declare-fun temp47698_43 () (_ BitVec 64))
(declare-fun var406582 () (_ BitVec 64))
(declare-fun temp47698_44 () (_ BitVec 64))
(declare-fun var406600 () (_ BitVec 64))
(declare-fun temp47698_45 () (_ BitVec 64))
(declare-fun temp47698_47 () (_ BitVec 64))
(declare-fun temp47698_46 () (_ BitVec 64))
(declare-fun temp47698_48 () (_ BitVec 64))
(declare-fun var603190 () (_ BitVec 64))
(declare-fun temp47698_49 () (_ BitVec 64))
(declare-fun var603208 () (_ BitVec 64))
(declare-fun temp47698_50 () (_ BitVec 64))
(declare-fun temp47698_52 () (_ BitVec 64))
(declare-fun temp47698_51 () (_ BitVec 64))
(declare-fun temp47698_54 () (_ BitVec 64))
(declare-fun temp47698_53 () (_ BitVec 64))
(declare-fun temp47698_56 () (_ BitVec 64))
(declare-fun temp47698_55 () (_ BitVec 64))
(declare-fun temp47698_58 () (_ BitVec 64))
(declare-fun temp47698_57 () (_ BitVec 64))
(declare-fun temp47698_60 () (_ BitVec 64))
(declare-fun temp47698_59 () (_ BitVec 64))
(declare-fun temp47698_61 () (_ BitVec 64))
(declare-fun var861259 () (_ BitVec 64))
(declare-fun var861238 () (_ BitVec 64))
(declare-fun var730144 () (_ BitVec 64))
(declare-fun temp47698_62 () (_ BitVec 64))
(declare-fun temp47698_63 () (_ BitVec 64))
(declare-fun var926795 () (_ BitVec 64))
(declare-fun var926774 () (_ BitVec 64))
(declare-fun var730147 () (_ BitVec 64))
(declare-fun temp47698_64 () (_ BitVec 64))
(declare-fun temp47698_65 () (_ BitVec 64))
(declare-fun var1123378 () (_ BitVec 64))
(declare-fun temp47698_66 () (_ BitVec 64))
(declare-fun var1188914 () (_ BitVec 64))
(declare-fun temp47698_67 () (_ BitVec 64))
(declare-fun var1254450 () (_ BitVec 64))
(declare-fun temp47698_69 () (_ BitVec 64))
(declare-fun temp47698_68 () (_ BitVec 64))
(declare-fun temp47698_71 () (_ BitVec 64))
(declare-fun temp47698_70 () (_ BitVec 64))
(assert (or (= ARGNAME_data_format_NAMEEND_STRFMT #x0000000000000000)
    (= ARGNAME_data_format_NAMEEND_STRFMT #x0000000000000001)
    (= ARGNAME_data_format_NAMEEND_STRFMT #x0000000000000002)
    (= ARGNAME_data_format_NAMEEND_STRFMT #x0000000000000003)
    (= ARGNAME_data_format_NAMEEND_STRFMT #x0000000000000004)
    (= ARGNAME_data_format_NAMEEND_STRFMT #x0000000000000005)))
(assert (= temp47698_1 #x0000000000000005))
(assert (= var77740
   (ite (= ARGNAME_input_1_NAMEEND_DIM temp47698_1)
        #x0000000000000001
        #x0000000000000000)))
(assert (= temp47698_2 #x0000000000000001))
(assert (= var77740 temp47698_2))
(assert (= temp47698_3 #x0000000000000005))
(assert (= var77770
   (ite (= ARGNAME_input_2_NAMEEND_DIM temp47698_3)
        #x0000000000000001
        #x0000000000000000)))
(assert (= temp47698_4 #x0000000000000001))
(assert (= var77770 temp47698_4))
(assert (= temp47698_5 #x0000000000000000))
(assert (= temp47698_6 (select ARGNAME_input_1_NAMEEND_DIMSIZE temp47698_5)))
(assert (= temp47698_7 #x0000000000000001))
(assert (= temp47698_8 (select ARGNAME_input_1_NAMEEND_DIMSIZE temp47698_7)))
(assert (= temp47698_9 #x0000000000000002))
(assert (= temp47698_10 (select ARGNAME_input_1_NAMEEND_DIMSIZE temp47698_9)))
(assert (= temp47698_11 #x0000000000000003))
(assert (= temp47698_12 (select ARGNAME_input_1_NAMEEND_DIMSIZE temp47698_11)))
(assert (= temp47698_13 #x0000000000000004))
(assert (= temp47698_14 (select ARGNAME_input_1_NAMEEND_DIMSIZE temp47698_13)))
(assert (= temp47698_15 #x0000000000000005))
(assert (= temp47698_16 (select ARGNAME_input_1_NAMEEND_DIMSIZE temp47698_15)))
(assert (= temp47698_17 #x0000000000000003))
(assert (= temp47698_18 (select ARGNAME_input_1_NAMEEND_DIMSIZE temp47698_17)))
(assert (= var77799 temp47698_18))
(assert (= temp47698_19 #x0000000000000000))
(assert (= temp47698_20 (select ARGNAME_input_2_NAMEEND_DIMSIZE temp47698_19)))
(assert (= temp47698_21 #x0000000000000001))
(assert (= temp47698_22 (select ARGNAME_input_2_NAMEEND_DIMSIZE temp47698_21)))
(assert (= temp47698_23 #x0000000000000002))
(assert (= temp47698_24 (select ARGNAME_input_2_NAMEEND_DIMSIZE temp47698_23)))
(assert (= temp47698_25 #x0000000000000003))
(assert (= temp47698_26 (select ARGNAME_input_2_NAMEEND_DIMSIZE temp47698_25)))
(assert (= temp47698_27 #x0000000000000004))
(assert (= temp47698_28 (select ARGNAME_input_2_NAMEEND_DIMSIZE temp47698_27)))
(assert (= temp47698_29 #x0000000000000005))
(assert (= temp47698_30 (select ARGNAME_input_2_NAMEEND_DIMSIZE temp47698_29)))
(assert (= temp47698_31 #x0000000000000004))
(assert (= temp47698_32 (select ARGNAME_input_2_NAMEEND_DIMSIZE temp47698_31)))
(assert (= var77832 temp47698_32))
(assert (= temp47698_33 #x0000000000000004))
(assert (= temp47698_34 (select ARGNAME_input_1_NAMEEND_DIMSIZE temp47698_33)))
(assert (= var77833 temp47698_34))
(assert (= var77834 (ite (= var77832 var77833) #x0000000000000001 #x0000000000000000)))
(assert (= temp47698_35 #x0000000000000001))
(assert (= var77834 temp47698_35))
(assert (= temp47698_36 #x0000000000000001))
(assert (= var275510 temp47698_36))
(assert (= temp47698_37 #x0000000000000001))
(assert (= var275528
   (ite (bvslt var275510 temp47698_37) #x0000000000000001 #x0000000000000000)))
(assert (= temp47698_38 #x0000000000000000))
(assert (= var275528 temp47698_38))
(assert (= temp47698_40 #x0000000000000000))
(assert (= temp47698_39 temp47698_40))
(assert (= temp47698_42 #x0000000000000000))
(assert (= temp47698_41 temp47698_42))
(assert (= temp47698_43 #x0000000000000001))
(assert (= var406582 temp47698_43))
(assert (= temp47698_44 #x0000000000000001))
(assert (= var406600
   (ite (bvslt var406582 temp47698_44) #x0000000000000001 #x0000000000000000)))
(assert (= temp47698_45 #x0000000000000000))
(assert (= var406600 temp47698_45))
(assert (= temp47698_47 #x0000000000000000))
(assert (= temp47698_46 temp47698_47))
(assert (= temp47698_48 #x0000000000000001))
(assert (= var603190 temp47698_48))
(assert (= temp47698_49 #x0000000000000001))
(assert (= var603208
   (ite (bvslt var603190 temp47698_49) #x0000000000000001 #x0000000000000000)))
(assert (= temp47698_50 #x0000000000000000))
(assert (= var603208 temp47698_50))
(assert (= temp47698_52 #x0000000000000000))
(assert (= temp47698_51 temp47698_52))
(assert (= temp47698_54 #x0000000000000000))
(assert (= temp47698_53 temp47698_54))
(assert (= temp47698_56 #x00000000000000ff))
(assert (= temp47698_55 temp47698_56))
(assert (= temp47698_58 #x00000000000000ff))
(assert (= temp47698_57 temp47698_58))
(assert (= temp47698_60 #x00000000000000ff))
(assert (= temp47698_59 temp47698_60))
(assert (= temp47698_61 #x0000000000000000))
(assert (= var861259 temp47698_61))
(assert (= var861238 var861259))
(assert (= var730144 var861238))
(assert (= temp47698_62 #x0000000000000000))
(assert (= var730144 temp47698_62))
(assert (= temp47698_63 #x0000000000000000))
(assert (= var926795 temp47698_63))
(assert (= var926774 var926795))
(assert (= var730147 var926774))
(assert (= temp47698_64 #x0000000000000000))
(assert (= var730147 temp47698_64))
(assert (= temp47698_65 #x0000000000008000))
(assert (= var1123378 temp47698_65))
(assert (= temp47698_66 #x0000000000040000))
(assert (= var1188914 temp47698_66))
(assert (= temp47698_67 #x0000000000200000))
(assert (= var1254450 temp47698_67))
(assert (= temp47698_69 #x0000000000000001))
(assert (= temp47698_68 temp47698_69))
(assert (= temp47698_71 #x0000000000000001))
(assert (= temp47698_70 temp47698_71))
(model-add temp47698_1 () (_ BitVec 64) #x0000000000000005)
(model-add temp47698_2 () (_ BitVec 64) #x0000000000000001)
(model-add var77740 () (_ BitVec 64) #x0000000000000001)
(model-del k!0)
(model-add ARGNAME_input_1_NAMEEND_DIM
           ()
           (_ BitVec 64)
           (ite k!0 #x0000000000000005 (bvnot #x0000000000000005)))

